Traveling Salesman Problem/TSP_generados/Aleatorio1621103705_17.tsp
NAME: Aleatorio1621103705_17.tsp
COMMENT: Randomly generated scenario
TYPE: TSP
DIMENSION: 17
EDGE_WEIGHT_TYPE: ATT
NODE_COORD_SECTION
1 40.04 31.18
2 6.33 23.71
3 29.56 29.88
4 13.47 19.38
5 34.68 31.22
6 30.27 2.59
7 30.87 45.56
8 33.44 14.13
9 11.17 29.87
10 41.64 10.02
11 27.8 8.53
12 30.48 36.69
13 6.1 23.36
14 21.14 10.38
15 30.39 7.35
16 17.3 25.55
17 29.33 20.53
