Traveling Salesman Problem/TSP_generados/Aleatorio1621103705_17.opt.tour
NAME: Aleatorio1621103705_17.opt.tour
COMMENT: Optimal solution for Aleatorio1621103705_17 (143.95541761190833)
TYPE: TOUR
DIMENSION: 17
TOUR_SECTION
1 5 17 8 10 6 15 11 14 4 13 2 9 16 3 12 7
-1
EOF
